language ESSENCE' 1.0

letting capacity_FunctionAsRelation_RelationAsSet_Explicit_1 be [1, 2, 3; int(1..3)]
letting capacity_FunctionAsRelation_RelationAsSet_Explicit_2 be [3, 5, 8; int(1..3)]
letting buckets be 3
letting HORIZON be 10
letting initialState_FunctionAsRelation_RelationAsSet_Explicit_1 be [1, 2, 3; int(1..3)]
letting initialState_FunctionAsRelation_RelationAsSet_Explicit_2 be [0, 0, 8; int(1..3)]
letting finalState_FunctionAsRelation_RelationAsSet_Explicit_1 be [1, 2, 3; int(1..3)]
letting finalState_FunctionAsRelation_RelationAsSet_Explicit_2 be [0, 4, 4; int(1..3)]
letting fin1 be 3
letting fin2 be 1
letting fin3 be 3
letting fin4 be 0
letting fin5 be 8
letting fin6 be 3
letting fin7 be 1
letting fin8 be 3
letting fin9 be 0
letting fin10 be 4
letting fin11 be 3
letting fin12 be 1
letting fin13 be 3
letting fin14 be 3
letting fin15 be 8
